44      7       
10       10      10      10      10	10      10
2	0	9	2	6	2	0	0	3	2	3	4
2	7	4	0	0	0	2	0	2	5	6
2	0	0	0	6	2	0	0	1	6
2	0	9	0	0	0	2	0	2	5	8
2	0	1	0	1	0	0	2	2	8	9
2	9	2	0	8	3	0	0	11	7	9	10	11	13	14	15	18	19	20	21
2	8	5	0	4	0	2	0	1	12
28	10	0	3	0	0	0	3	1	44
2	0	0	8	0	0	2	0	1	24
2	0	9	5	4	2	0	0	1	24
2	0	1	8	0	0	0	2	2	13	24
2	0	0	6	10	1	0	0	3	16	17	24
2	0	0	9	3	1	0	0	1	24
2	0	0	8	3	2	0	0	1	24
2	10	0	0	3	0	2	0	1	24
4	0	5	0	5	0	2	0	1	22
4	8	4	0	9	0	3	0	1	23
2	0	0	5	0	2	0	0	1	24
2	0	0	3	10	0	3	0	1	24
2	7	0	0	7	0	0	3	1	24
2	9	0	0	0	0	0	5	1	24
2	3	5	10	2	0	0	1	2	25	26
2	9	0	0	4	0	0	2	2	25	26
2	1	0	3	9	0	3	0	1	27
2	0	0	0	2	3	0	0	4	28	29	30	34
4	0	8	0	0	5	0	0	1	32
4	0	0	0	6	0	5	0	1	41
2	0	0	10	0	0	5	0	1	31
2	0	5	0	7	4	0	0	2	31	33
2	8	0	2	3	0	0	6	1	38
4	10	0	0	0	0	0	3	2	35	36
4	0	10	0	0	0	0	4	1	38
8	0	0	5	0	0	0	5	2	37	43
2	0	3	9	0	0	0	4	1	38
6	5	0	0	0	1	0	0	1	40
4	6	2	1	8	0	1	0	1	38
4	5	0	0	0	0	0	1	1	39
4	4	0	0	0	2	0	0	1	44
2	0	4	9	2	0	2	0	1	42
8	6	3	8	6	1	0	0	1	44
10	6	0	1	9	0	2	0	1	44
10	0	5	4	0	0	0	5	1	44
8	3	0	0	0	3	0	0	1	44
2	0	7	1	0	0	2	0	0 


   
